lbl,CUST NO.,READY TIME,XCOORD.,YCOORD.,DEMAND,DUE DATE,SERVICE TIME
1,0,0,70,70,0,1351,0
1,113,15,67,55,10,195,90
1,155,20,63,57,10,200,90
1,78,111,62,58,20,291,90
1,175,205,61,54,10,385,90
1,13,300,63,50,10,480,90
1,43,393,61,48,20,573,90
1,2,487,59,52,20,667,90
1,90,579,57,53,10,759,90
1,67,673,59,56,20,853,90
1,17,767,57,59,10,947,90
1,39,861,61,59,20,1041,90
1,107,954,64,61,20,1134,90
